wmc_benchmarks/WMCBenchSingleMea/wstate_nativegates_ibm_qiskit_opt0_2.qasm.cnf
p cnf 68 256
c p weight 7 1 0
c p weight -7 1 0
c p weight 8 0 0
c p weight -8 1 0
c p weight -5 1 0
c p weight 5 -1 0
c p weight 11 6.12323399573676603586882014729198302312846062338790031898128063403419218957424163818359375E-17 0
c p weight -11 1 0
c p weight 12 1 0
c p weight -12 1 0
c p weight -9 1 0
c p weight 9 -1 0
c p weight 15 -0.707106781186547461715008466853760182857513427734375 0
c p weight -15 1 0
c p weight 16 0.70710678118654757273731092936941422522068023681640625 0
c p weight -16 1 0
c p weight -13 1 0
c p weight 13 -1 0
c p weight 19 6.12323399573676603586882014729198302312846062338790031898128063403419218957424163818359375E-17 0
c p weight -19 1 0
c p weight 20 1 0
c p weight -20 1 0
c p weight -17 1 0
c p weight 17 -1 0
c p weight 23 -1 0
c p weight -23 1 0
c p weight 24 3.673940397442059375002259206809000622711899723162043418511757408850826323032379150390625E-16 0
c p weight -24 1 0
c p weight -21 1 0
c p weight 21 -1 0
c p weight -25 1 0
c p weight 25 -1 0
c p weight 29 6.12323399573676603586882014729198302312846062338790031898128063403419218957424163818359375E-17 0
c p weight -29 1 0
c p weight 30 1 0
c p weight -30 1 0
c p weight -27 1 0
c p weight 27 -1 0
c p weight -31 1 0
c p weight 31 -1 0
c p weight -33 1 0
c p weight 33 -1 0
c p weight -34 1 0
c p weight 34 -1 0
c p weight -37 1 0
c p weight 37 -1 0
c p weight 41 6.12323399573676603586882014729198302312846062338790031898128063403419218957424163818359375E-17 0
c p weight -41 1 0
c p weight 42 1 0
c p weight -42 1 0
c p weight -39 1 0
c p weight 39 -1 0
c p weight -43 1 0
c p weight 43 -1 0
c p weight 47 1 0
c p weight -47 1 0
c p weight 48 0 0
c p weight -48 1 0
c p weight -45 1 0
c p weight 45 -1 0
c p weight 51 6.12323399573676603586882014729198302312846062338790031898128063403419218957424163818359375E-17 0
c p weight -51 1 0
c p weight 52 1 0
c p weight -52 1 0
c p weight -49 1 0
c p weight 49 -1 0
c p weight 55 -0.7071067811865476837596133918850682675838470458984375 0
c p weight -55 1 0
c p weight 56 -0.707106781186547461715008466853760182857513427734375 0
c p weight -56 1 0
c p weight -53 1 0
c p weight 53 -1 0
c p weight 59 6.12323399573676603586882014729198302312846062338790031898128063403419218957424163818359375E-17 0
c p weight -59 1 0
c p weight 60 1 0
c p weight -60 1 0
c p weight -57 1 0
c p weight 57 -1 0
c p weight 63 -1 0
c p weight -63 1 0
c p weight 64 3.673940397442059375002259206809000622711899723162043418511757408850826323032379150390625E-16 0
c p weight -64 1 0
c p weight -61 1 0
c p weight 61 -1 0
c p weight -65 1 0
c p weight 65 -1 0
c p weight 68 0.5 0
c p weight -68 1 0
68 0
-3 0
-1 0
-5 1 0
-5 2 0
-5 -6 0
5 6 -1 -2 0
6 1 -2 0
-6 1 2 0
-7 1 0
6 -7 -2 0
-6 -7 2 0
6 7 -1 2 0
-6 7 -1 -2 0
-8 1 0
6 -8 2 0
-6 -8 -2 0
6 8 -1 -2 0
-6 8 -1 2 0
-9 10 0
-9 6 0
-9 -1 0
9 -10 1 -6 0
10 -1 6 0
-10 1 6 0
-11 6 0
10 -11 -1 0
-10 -11 1 0
10 11 1 -6 0
-10 11 -1 -6 0
-12 6 0
10 -12 1 0
-10 -12 -1 0
10 12 -1 -6 0
-10 12 1 -6 0
-13 10 0
-13 6 0
-13 -14 0
13 14 -10 -6 0
14 10 -6 0
-14 10 6 0
-15 10 0
14 -15 -6 0
-14 -15 6 0
14 15 -10 6 0
-14 15 -10 -6 0
-16 10 0
14 -16 6 0
-14 -16 -6 0
14 16 -10 -6 0
-14 16 -10 6 0
-17 18 0
-17 14 0
-17 -10 0
17 -18 10 -14 0
18 -10 14 0
-18 10 14 0
-19 14 0
18 -19 -10 0
-18 -19 10 0
18 19 10 -14 0
-18 19 -10 -14 0
-20 14 0
18 -20 10 0
-18 -20 -10 0
18 20 -10 -14 0
-18 20 10 -14 0
-21 18 0
-21 14 0
-21 -22 0
21 22 -18 -14 0
22 18 -14 0
-22 18 14 0
-23 18 0
22 -23 -14 0
-22 -23 14 0
22 23 -18 14 0
-22 23 -18 -14 0
-24 18 0
22 -24 14 0
-22 -24 -14 0
22 24 -18 -14 0
-22 24 -18 14 0
-25 18 0
-25 22 0
25 -18 -22 0
26 18 -22 0
26 -18 22 0
-26 18 22 0
-26 -18 -22 0
-27 28 0
-27 26 0
-27 -18 0
27 -28 18 -26 0
28 -18 26 0
-28 18 26 0
-29 26 0
28 -29 -18 0
-28 -29 18 0
28 29 18 -26 0
-28 29 -18 -26 0
-30 26 0
28 -30 18 0
-28 -30 -18 0
28 30 -18 -26 0
-28 30 18 -26 0
-31 28 0
-31 26 0
31 -28 -26 0
32 28 -26 0
32 -28 26 0
-32 28 26 0
-32 -28 -26 0
33 -4 0
-33 4 0
-34 3 0
-34 32 0
-34 28 -4 0
-34 -28 4 0
34 -3 28 4 -32 0
34 -3 -28 -4 -32 0
36 3 -28 0
36 -3 28 0
-36 3 28 0
-36 -3 -28 0
35 4 -32 0
35 -4 32 0
-35 4 32 0
-35 -4 -32 0
-37 36 0
-37 32 0
37 -36 -32 0
38 36 -32 0
38 -36 32 0
-38 36 32 0
-38 -36 -32 0
-39 40 0
-39 38 0
-39 -36 0
39 -40 36 -38 0
40 -36 38 0
-40 36 38 0
-41 38 0
40 -41 -36 0
-40 -41 36 0
40 41 36 -38 0
-40 41 -36 -38 0
-42 38 0
40 -42 36 0
-40 -42 -36 0
40 42 -36 -38 0
-40 42 36 -38 0
-43 40 0
-43 38 0
43 -40 -38 0
44 40 -38 0
44 -40 38 0
-44 40 38 0
-44 -40 -38 0
-45 40 0
-45 44 0
-45 -46 0
45 46 -40 -44 0
46 40 -44 0
-46 40 44 0
-47 40 0
46 -47 -44 0
-46 -47 44 0
46 47 -40 44 0
-46 47 -40 -44 0
-48 40 0
46 -48 44 0
-46 -48 -44 0
46 48 -40 -44 0
-46 48 -40 44 0
-49 50 0
-49 46 0
-49 -40 0
49 -50 40 -46 0
50 -40 46 0
-50 40 46 0
-51 46 0
50 -51 -40 0
-50 -51 40 0
50 51 40 -46 0
-50 51 -40 -46 0
-52 46 0
50 -52 40 0
-50 -52 -40 0
50 52 -40 -46 0
-50 52 40 -46 0
-53 50 0
-53 46 0
-53 -54 0
53 54 -50 -46 0
54 50 -46 0
-54 50 46 0
-55 50 0
54 -55 -46 0
-54 -55 46 0
54 55 -50 46 0
-54 55 -50 -46 0
-56 50 0
54 -56 46 0
-54 -56 -46 0
54 56 -50 -46 0
-54 56 -50 46 0
-57 58 0
-57 54 0
-57 -50 0
57 -58 50 -54 0
58 -50 54 0
-58 50 54 0
-59 54 0
58 -59 -50 0
-58 -59 50 0
58 59 50 -54 0
-58 59 -50 -54 0
-60 54 0
58 -60 50 0
-58 -60 -50 0
58 60 -50 -54 0
-58 60 50 -54 0
-61 58 0
-61 54 0
-61 -62 0
61 62 -58 -54 0
62 58 -54 0
-62 58 54 0
-63 58 0
62 -63 -54 0
-62 -63 54 0
62 63 -58 54 0
-62 63 -58 -54 0
-64 58 0
62 -64 54 0
-62 -64 -54 0
62 64 -58 -54 0
-62 64 -58 54 0
-65 58 0
-65 35 0
-65 3 -62 0
-65 -3 62 0
65 -58 3 62 -35 0
65 -58 -3 -62 -35 0
67 58 -3 0
67 -58 3 0
-67 58 3 0
-67 -58 -3 0
66 62 -35 0
66 -62 35 0
-66 62 35 0
-66 -62 -35 0
-58 0
-67 0
-35 0
