wmc_benchmarks/MQTBench/wstate_nativegates_ibm_qiskit_opt0_2.qasm
// Used Gate Set: ['id', 'rz', 'sx', 'x', 'cx', 'measure', 'barrier']
OPENQASM 2.0;
include "qelib1.inc";
qreg q[2];
rz(0) q[0];
rx(0.5*pi) q[0];
rz(3*pi/4) q[0];
rx(0.5*pi) q[0];
rz(3*pi) q[0];
rz(pi/2) q[0];
rx(0.5*pi) q[0];
rz(pi/2) q[0];
x q[1];
cx q[1],q[0];
rz(pi/2) q[0];
rx(0.5*pi) q[0];
rz(pi/2) q[0];
rz(0) q[0];
rx(0.5*pi) q[0];
rz(5*pi/4) q[0];
rx(0.5*pi) q[0];
rz(3*pi) q[0];
cx q[0],q[1];
